41 13
23 0
35 47
44 6
41 38
11 9
4 15
15 5
43 29
9 18
15 8
9 7
1 30
49 18
48 25
3 19
33 14
38 41
29 9
9 36
14 12
15 14
4 35
47 25
37 8
12 13
0 18
47 48
25 1
47 46
4 7
46 12
6 11
22 42
15 8
19 25
21 0
26 48
31 44
14 47
39 7
34 13
9 16
39 49
35 33
35 7
1 32
9 1
11 34
41 40
